22	3

10	10	10	

0	0	0	0	3	2	3	4	
5	3	5	2	3	6	7	8	
2	5	4	3	2	5	6	
8	5	2	2	2	5	6	
5	4	1	4	2	10	11	
4	5	5	4	2	9	10	
2	3	5	2	2	10	11	
1	2	4	4	3	9	11	12	
2	3	2	2	3	13	14	15	
2	3	2	4	1	16	
4	3	3	2	1	13	
5	4	1	4	1	16	
7	1	4	4	1	18	
7	2	2	2	2	18	19	
2	5	5	4	1	17	
5	1	5	4	1	17	
2	4	5	4	1	21	
1	3	2	3	1	20	
3	5	3	3	1	21	
2	2	4	6	1	22	
2	1	6	2	1	22	
0	0	0	0	0	
